SAT
-1 -100 -99 -98 97 18 14 -95 96 12 25 23 90 -32 -67 -46 -94 -19 -9 -13 77 -15 -59 -53 -56 -58 82 -71 48 33 54 -45 2 -55 -86 -39 -42 -81 28 83 -5 -40 36 -70 -24 60 73 -7 -26 3 -41 -52 -66 -44 -37 -6 -87 62 4 -88 -91 64 -30 65 -22 -89 -21 51 -43 72 69 -17 57 8 -79 38 -78 47 -29 -84 -10 -49 80 93 74 75 76 16 92 -50 11 -68 -85 34 -27 31 -20 61 63 -35 0
